
Gurobi 12.0.3 (linux64) logging started Fri Mar 27 14:45:02 2026

Set parameter LogFile to value "/home/solar-wind/WT_Solar_results_bigM100000_thread4/case24_ieee_rts_theta0.15_epsilon0.1_gurobi_seed40000_num_gen38_N_WDR200_load_scaling_factor1_EIFICA_T24_num_Solar5_num_WT10.txt"
Gurobi Optimizer version 12.0.3 build v12.0.3rc0 (linux64 - "Ubuntu 22.04.5 LTS")

CPU model: Intel(R) Xeon(R) Platinum 8378A CPU @ 3.00GHz, instruction set [SSE2|AVX|AVX2|AVX512]
Thread count: 32 physical cores, 64 logical processors, using up to 4 threads

Non-default parameters:
TimeLimit  14400
MIPGap  0.001
Seed  40000
Threads  4

Academic license 2721591 - for non-commercial use only - registered to fa___@mails.neu.edu.cn
Optimize a model with 624388 rows, 2025 columns and 51044968 nonzeros
Model fingerprint: 0xf43b8dd5
Model has 912 quadratic objective terms
Coefficient statistics:
  Matrix range     [3e-07, 7e+01]
  Objective range  [2e+01, 6e+01]
  QObjective range [4e-03, 2e-02]
  Bounds range     [0e+00, 0e+00]
  RHS range        [5e-02, 1e+03]
Presolve removed 439660 rows and 0 columns
Presolve time: 5.30s
Presolved: 184728 rows, 2899 columns, 3863690 nonzeros
Presolved model has 912 quadratic objective terms
Elapsed ordering time = 15s
Ordering time: 29.58s
Elapsed ordering time = 30s
Elapsed ordering time = 31s
Elapsed ordering time = 35s
Elapsed ordering time = 38s
Elapsed ordering time = 40s
Elapsed ordering time = 43s
Elapsed ordering time = 47s
Elapsed ordering time = 52s
Ordering time: 56.10s

Barrier statistics:
 Dense cols : 1091
 AA' NZ     : 1.873e+08
 Factor NZ  : 7.210e+08 (roughly 6.0 GB of memory)
 Factor Ops : 9.701e+12 (roughly 50 seconds per iteration)
 Threads    : 4

                  Objective                Residual
Iter       Primal          Dual         Primal    Dual     Compl     Time
   0   5.83287299e+08 -3.28957238e+08  3.80e+04 1.00e+03  9.91e+05   154s
   1   5.48494925e+08 -3.00036007e+08  3.66e+04 9.60e+02  9.53e+05   154s
   2   5.44068487e+08 -2.97945053e+08  3.64e+04 9.55e+02  9.48e+05   154s
   3   5.26117049e+08 -3.08478616e+08  3.55e+04 9.34e+02  9.27e+05   155s
   4   4.95254481e+08 -3.04640276e+08  3.41e+04 8.97e+02  8.91e+05   155s
   5   4.59948922e+08 -3.53715284e+08  3.25e+04 8.54e+02  8.63e+05   156s
   6   4.11314065e+08 -3.97179670e+08  3.02e+04 7.91e+02  8.20e+05   156s
   7   3.43330771e+08 -4.51861426e+08  2.68e+04 6.97e+02  7.54e+05   156s
   8   2.92753215e+08 -5.15648944e+08  2.41e+04 6.22e+02  7.23e+05   156s
   9   2.56263333e+08 -5.31172762e+08  2.19e+04 5.65e+02  6.58e+05   156s
  10   2.22629568e+08 -5.52004832e+08  1.98e+04 5.10e+02  5.95e+05   156s
  11   1.91292983e+08 -5.73154684e+08  1.78e+04 4.56e+02  5.33e+05   157s
  12   1.65260417e+08 -5.96191344e+08  1.60e+04 4.08e+02  4.78e+05   157s
  13   1.40642288e+08 -6.15254231e+08  1.41e+04 3.59e+02  4.23e+05   157s
  14   1.22993996e+08 -6.34357451e+08  1.27e+04 3.22e+02  3.80e+05   157s
  15   1.06258139e+08 -6.55806857e+08  1.13e+04 2.86e+02  3.38e+05   157s
  16   9.07820324e+07 -6.78622358e+08  1.00e+04 2.50e+02  2.97e+05   157s
  17   7.60168341e+07 -7.03643753e+08  8.68e+03 2.15e+02  2.56e+05   157s
  18   6.03067559e+07 -7.24953854e+08  7.15e+03 1.76e+02  2.11e+05   157s
  19   4.71718417e+07 -7.50641069e+08  5.83e+03 1.41e+02  1.71e+05   157s
  20   3.61597928e+07 -7.69808869e+08  5.30e+03 1.11e+02  1.36e+05   158s
  21   2.72199948e+07 -7.80764904e+08  6.50e+03 8.53e+01  1.06e+05   158s
  22   1.01166152e+07 -7.88403551e+08  9.88e+03 3.24e+01  5.74e+04   158s
  23   7.95749670e+06 -7.57675669e+08  8.62e+03 2.53e+01  4.51e+04   158s
  24   6.48766768e+06 -7.24737455e+08  7.74e+03 2.03e+01  3.66e+04   158s
  25   5.06468350e+06 -6.79875570e+08  6.61e+03 1.55e+01  2.83e+04   158s
  26   3.68477552e+06 -6.15572546e+08  4.76e+03 1.09e+01  2.02e+04   158s
  27   2.75766762e+06 -5.50462799e+08  3.17e+03 7.78e+00  1.47e+04   158s
  28   2.05591728e+06 -4.86375459e+08  2.24e+03 5.42e+00  1.04e+04   158s
  29   1.65988465e+06 -4.34987193e+08  1.58e+03 4.06e+00  7.94e+03   159s
  30   1.36942234e+06 -4.29757490e+08  9.84e+02 2.98e+00  6.58e+03   159s
  31   9.95581101e+05 -3.30134412e+08  4.75e+02 1.56e+00  3.63e+03   159s
  32   8.06981231e+05 -2.70054194e+08  2.21e+02 7.28e-01  2.19e+03   159s
  33   7.61860448e+05 -2.41999332e+08  1.61e+02 5.25e-01  1.80e+03   159s
  34   7.36208273e+05 -2.12615410e+08  1.25e+02 4.07e-01  1.49e+03   160s
  35   7.12136861e+05 -1.80772329e+08  8.97e+01 2.92e-01  1.19e+03   160s
  36   7.04779604e+05 -1.66467206e+08  7.68e+01 2.50e-01  1.07e+03   161s
  37   6.98164924e+05 -1.51896080e+08  6.43e+01 2.10e-01  9.54e+02   161s
  38   6.93314745e+05 -1.39745232e+08  5.46e+01 1.78e-01  8.62e+02   162s
  39   6.88797787e+05 -1.25302179e+08  4.41e+01 1.44e-01  7.59e+02   162s
  40   6.83401244e+05 -9.73809878e+07  2.86e+01 9.35e-02  5.75e+02   163s
  41   6.82219929e+05 -8.78010886e+07  2.44e+01 8.00e-02  5.20e+02   165s
  42   6.81542758e+05 -7.98922384e+07  2.03e+01 6.65e-02  4.62e+02   166s
  43   6.79898665e+05 -4.85368094e+07  1.06e+01 3.47e-02  2.73e+02   167s
  44   6.76584716e+05 -2.90742513e+07  4.86e+00 1.60e-02  1.61e+02   168s
  45   6.74992278e+05 -1.44614525e+07  2.12e+00 6.95e-03  8.11e+01   171s
  46   6.71114089e+05  6.02077406e+04  3.25e-02 8.33e-03  3.24e+00   192s
  47   6.21066001e+05  4.93554122e+05  1.83e-03 1.04e-03  6.77e-01   214s
  48   5.99717193e+05  5.57723950e+05  4.04e-04 2.30e-04  2.23e-01   239s
  49   5.93352855e+05  5.72875702e+05  6.77e-05 3.86e-05  1.09e-01   279s
  50   5.90965956e+05  5.82059753e+05  7.55e-06 4.30e-06  4.73e-02   320s
  51   5.89841019e+05  5.87311665e+05  5.54e-07 3.16e-07  1.34e-02   361s
  52   5.89574611e+05  5.88516447e+05  5.54e-08 3.16e-08  5.61e-03   402s
  53   5.89461312e+05  5.89040903e+05  4.04e-09 2.32e-09  2.23e-03   444s
  54   5.89414036e+05  5.89265659e+05  6.85e-10 1.23e-10  7.87e-04   487s
  55   5.89393129e+05  5.89365039e+05  6.07e-10 6.10e-11  1.49e-04   530s
  56   5.89389143e+05  5.89383424e+05  3.65e-09 2.74e-12  3.03e-05   570s
  57   5.89388162e+05  5.89388070e+05  5.87e-09 2.72e-12  4.87e-07   612s
  58   5.89388146e+05  5.89388145e+05  7.21e-10 1.00e-11  8.72e-10   657s

Barrier solved model in 58 iterations and 656.94 seconds (798.59 work units)
Optimal objective 5.89388146e+05

